
Gurobi 10.0.1 (linux64) logging started Sun Nov 26 15:55:06 2023

Set parameter LogFile to value "ArtificialInstance/ExperimentV2/S2T3K3/AdSp/gurobiDoSp89.txt"
Gurobi Optimizer version 10.0.1 build v10.0.1rc0 (linux64)

CPU model: AMD EPYC 7H12 64-Core Processor, instruction set [SSE2|AVX|AVX2]
Thread count: 128 physical cores, 128 logical processors, using up to 32 threads

Academic license 656792 - for non-commercial use only - registered to b.___@student.vu.nl
Optimize a model with 9690 rows, 9378 columns and 35900 nonzeros
Model fingerprint: 0xa5f7aa72
Variable types: 0 continuous, 9378 integer (9378 binary)
Coefficient statistics:
  Matrix range     [1e+00, 1e+00]
  Objective range  [2e+00, 2e+01]
  Bounds range     [1e+00, 1e+00]
  RHS range        [1e+00, 1e+00]
Presolve removed 7176 rows and 6996 columns
Presolve time: 0.17s
Presolved: 2514 rows, 2382 columns, 9247 nonzeros
Variable types: 0 continuous, 2382 integer (2382 binary)
Found heuristic solution: objective 184.8606528

Root relaxation: objective 5.449458e+01, 584 iterations, 0.01 seconds (0.01 work units)

    Nodes    |    Current Node    |     Objective Bounds      |     Work
 Expl Unexpl |  Obj  Depth IntInf | Incumbent    BestBd   Gap | It/Node Time

*    0     0               0      54.4945835   54.49458  0.00%     -    0s

Explored 1 nodes (584 simplex iterations) in 0.22 seconds (0.15 work units)
Thread count was 32 (of 128 available processors)

Solution count 2: 54.4946 184.861 

Optimal solution found (tolerance 1.00e-04)
Best objective 5.449458346388e+01, best bound 5.449458346388e+01, gap 0.0000%
